TCS_Benchmarks/redos_fix/regexlib2_output_distinct_2419_2418_0_0.smt2
(set-logic QF_S)
(declare-const x String)
(assert (str.in.re x (re.inter  (re.++  (re.union  (re.++ (re.range "\u{31}" "\u{39}") (re.range "\u{31}" "\u{39}")) (re.union  (re.++ (re.range "\u{31}" "\u{39}")   (re.++ (re.range "\u{31}" "\u{39}") (re.range "\u{31}" "\u{39}")))  (re.++ (re.range "\u{31}" "\u{39}")   (re.++ (re.range "\u{31}" "\u{39}")   (re.++ (re.range "\u{31}" "\u{39}") (re.range "\u{31}" "\u{39}"))))))  (re.union  (re.++ (re.range "\u{31}" "\u{39}") (re.++ (re.range "\u{31}" "\u{39}") (re.++ (re.range "\u{31}" "\u{39}") (re.range "\u{31}" "\u{39}")))) (re.union  (re.++ (re.range "\u{31}" "\u{39}")   (re.++ (re.range "\u{31}" "\u{39}") (re.++ (re.range "\u{31}" "\u{39}") (re.++ (re.range "\u{31}" "\u{39}") (re.range "\u{31}" "\u{39}"))))) (re.union  (re.++ (re.range "\u{31}" "\u{39}")   (re.++ (re.range "\u{31}" "\u{39}")   (re.++ (re.range "\u{31}" "\u{39}") (re.++ (re.range "\u{31}" "\u{39}") (re.++ (re.range "\u{31}" "\u{39}") (re.range "\u{31}" "\u{39}"))))))  (re.++ (re.range "\u{31}" "\u{39}")   (re.++ (re.range "\u{31}" "\u{39}")   (re.++ (re.range "\u{31}" "\u{39}")   (re.++ (re.range "\u{31}" "\u{39}") (re.++ (re.range "\u{31}" "\u{39}") (re.++ (re.range "\u{31}" "\u{39}") (re.range "\u{31}" "\u{39}")))))))))))  (re.++  (re.union  (re.++ (re.range "\u{31}" "\u{39}") (re.range "\u{31}" "\u{39}")) (re.union  (re.++ (re.range "\u{31}" "\u{39}")   (re.++ (re.range "\u{31}" "\u{39}") (re.range "\u{31}" "\u{39}")))  (re.++ (re.range "\u{31}" "\u{39}")   (re.++ (re.range "\u{31}" "\u{39}")   (re.++ (re.range "\u{31}" "\u{39}") (re.range "\u{31}" "\u{39}")))))) (re.++  (re.++ (re.opt  (str.to.re "\u{29}") ) (re.++ (re.opt  (str.to.re "\u{2d}") ) (re.++ (re.opt  (str.to.re "\u{20}") ) (re.opt  (str.to.re "\u{28}") ))))  (re.union  (re.++ (re.range "\u{31}" "\u{39}") (re.++ (re.range "\u{31}" "\u{39}") (re.++ (re.range "\u{31}" "\u{39}") (re.range "\u{31}" "\u{39}")))) (re.union  (re.++ (re.range "\u{31}" "\u{39}")   (re.++ (re.range "\u{31}" "\u{39}") (re.++ (re.range "\u{31}" "\u{39}") (re.++ (re.range "\u{31}" "\u{39}") (re.range "\u{31}" "\u{39}"))))) (re.union  (re.++ (re.range "\u{31}" "\u{39}")   (re.++ (re.range "\u{31}" "\u{39}")   (re.++ (re.range "\u{31}" "\u{39}") (re.++ (re.range "\u{31}" "\u{39}") (re.++ (re.range "\u{31}" "\u{39}") (re.range "\u{31}" "\u{39}"))))))  (re.++ (re.range "\u{31}" "\u{39}")   (re.++ (re.range "\u{31}" "\u{39}")   (re.++ (re.range "\u{31}" "\u{39}")   (re.++ (re.range "\u{31}" "\u{39}") (re.++ (re.range "\u{31}" "\u{39}") (re.++ (re.range "\u{31}" "\u{39}") (re.range "\u{31}" "\u{39}")))))))))))) )))
(check-sat)
(get-model)