TCS_Benchmarks/redos_fix/regexlib2_output_distinct_2419_2418_0_0.txt
([1-9]{2,4})([1-9]{4,7})
([1-9]{2,4})((\))?-? ?(\()?)([1-9]{4,7})